data;

param v : 1 2 3 4 5 6 7 8 9 10 :=
	1 1  1  1  1  0  0  0  0  0  0 
	2 0  0  1  0  1  0  0  0  0  0 
	3 1  1  0  0  0  0  0  1  0  0 
	4 1  1  1  0  0  0  0  0  0  0 
	5 1  1  1  0  0  0  0  0  0  0 
	6 1  0  0  1  0  1  0  0  0  0 
	7 1  0  0  1  0  0  0  1  0  0 
	8 0  0  1  0  0  0  1  1  1  1 
	;

param g := 8;

param njeux := 10;

param qttjeux := 
	1 3
	2 3
	3 3
	4 3
	5 3
	6 1
	7 3
	8 1
	9 3
	10 1;

end;